p edge 66 659
e 1 5
e 1 6
e 1 15
e 1 16
e 1 25
e 1 27
e 1 28
e 1 29
e 1 32
e 1 34
e 1 35
e 1 40
e 1 46
e 1 52
e 1 59
e 1 60
e 1 62
e 1 63
e 1 65
e 1 66
e 2 3
e 2 13
e 2 15
e 2 18
e 2 21
e 2 22
e 2 23
e 2 25
e 2 26
e 2 28
e 2 36
e 2 37
e 2 38
e 2 40
e 2 43
e 2 46
e 2 48
e 2 49
e 2 55
e 2 63
e 3 6
e 3 7
e 3 10
e 3 13
e 3 14
e 3 15
e 3 17
e 3 20
e 3 24
e 3 28
e 3 31
e 3 33
e 3 37
e 3 40
e 3 43
e 3 45
e 3 47
e 3 49
e 3 50
e 3 53
e 3 54
e 3 57
e 3 62
e 3 64
e 3 65
e 3 66
e 4 14
e 4 19
e 4 22
e 4 24
e 4 27
e 4 36
e 4 39
e 4 45
e 4 48
e 4 51
e 4 54
e 4 58
e 4 59
e 4 64
e 4 66
e 5 13
e 5 14
e 5 15
e 5 25
e 5 33
e 5 34
e 5 39
e 5 43
e 5 47
e 5 48
e 5 52
e 5 53
e 5 64
e 6 9
e 6 11
e 6 13
e 6 15
e 6 17
e 6 27
e 6 36
e 6 37
e 6 39
e 6 47
e 6 48
e 6 49
e 6 50
e 6 51
e 6 53
e 6 56
e 7 8
e 7 9
e 7 10
e 7 11
e 7 13
e 7 15
e 7 18
e 7 19
e 7 22
e 7 35
e 7 36
e 7 45
e 7 54
e 7 58
e 7 59
e 7 63
e 7 64
e 7 66
e 8 9
e 8 17
e 8 18
e 8 20
e 8 21
e 8 22
e 8 28
e 8 34
e 8 37
e 8 40
e 8 42
e 8 43
e 8 50
e 8 53
e 8 55
e 8 56
e 8 59
e 8 60
e 8 62
e 8 64
e 8 65
e 9 13
e 9 14
e 9 16
e 9 26
e 9 29
e 9 35
e 9 36
e 9 39
e 9 41
e 9 42
e 9 43
e 9 49
e 9 56
e 9 58
e 9 59
e 9 63
e 10 11
e 10 12
e 10 16
e 10 17
e 10 19
e 10 23
e 10 26
e 10 29
e 10 30
e 10 32
e 10 37
e 10 40
e 10 42
e 10 43
e 10 45
e 10 53
e 10 54
e 10 55
e 10 56
e 10 59
e 10 60
e 10 61
e 11 15
e 11 20
e 11 22
e 11 25
e 11 26
e 11 28
e 11 30
e 11 35
e 11 41
e 11 45
e 11 47
e 11 52
e 11 55
e 11 60
e 11 61
e 11 63
e 11 64
e 12 14
e 12 15
e 12 16
e 12 18
e 12 19
e 12 20
e 12 22
e 12 24
e 12 25
e 12 27
e 12 28
e 12 30
e 12 36
e 12 37
e 12 40
e 12 42
e 12 43
e 12 45
e 12 46
e 12 48
e 12 49
e 12 58
e 12 61
e 12 62
e 12 63
e 13 19
e 13 26
e 13 28
e 13 32
e 13 36
e 13 47
e 13 60
e 13 61
e 14 15
e 14 17
e 14 18
e 14 25
e 14 31
e 14 33
e 14 34
e 14 44
e 14 49
e 14 58
e 14 60
e 14 62
e 14 63
e 14 65
e 14 66
e 15 16
e 15 20
e 15 26
e 15 27
e 15 29
e 15 32
e 15 33
e 15 41
e 15 47
e 15 50
e 15 54
e 15 59
e 15 62
e 15 66
e 16 18
e 16 25
e 16 26
e 16 29
e 16 32
e 16 36
e 16 37
e 16 41
e 16 44
e 16 52
e 16 57
e 16 62
e 16 65
e 17 19
e 17 21
e 17 30
e 17 36
e 17 40
e 17 53
e 17 54
e 17 55
e 17 58
e 17 60
e 17 66
e 18 21
e 18 22
e 18 26
e 18 27
e 18 28
e 18 32
e 18 34
e 18 35
e 18 36
e 18 37
e 18 39
e 18 40
e 18 51
e 18 52
e 18 53
e 18 56
e 18 57
e 18 58
e 18 60
e 19 24
e 19 25
e 19 33
e 19 38
e 19 40
e 19 41
e 19 43
e 19 44
e 19 46
e 19 48
e 19 50
e 19 56
e 19 57
e 19 58
e 19 66
e 20 24
e 20 41
e 20 45
e 20 46
e 20 55
e 20 57
e 20 59
e 20 60
e 20 62
e 20 63
e 21 23
e 21 24
e 21 30
e 21 31
e 21 34
e 21 35
e 21 36
e 21 37
e 21 40
e 21 41
e 21 42
e 21 43
e 21 48
e 21 51
e 21 52
e 21 53
e 21 56
e 21 58
e 21 64
e 22 24
e 22 25
e 22 33
e 22 34
e 22 35
e 22 39
e 22 41
e 22 44
e 22 48
e 22 50
e 22 55
e 22 63
e 22 64
e 22 65
e 22 66
e 23 27
e 23 31
e 23 32
e 23 35
e 23 37
e 23 42
e 23 44
e 23 45
e 23 48
e 23 50
e 23 53
e 23 54
e 23 59
e 23 61
e 23 64
e 23 65
e 23 66
e 24 28
e 24 31
e 24 32
e 24 36
e 24 37
e 24 38
e 24 42
e 24 46
e 24 47
e 24 50
e 24 51
e 24 52
e 24 54
e 24 56
e 24 59
e 24 60
e 24 65
e 24 66
e 25 31
e 25 33
e 25 38
e 25 46
e 25 50
e 25 51
e 25 53
e 25 55
e 25 56
e 25 59
e 25 60
e 25 62
e 26 37
e 26 40
e 26 41
e 26 44
e 26 47
e 26 49
e 26 54
e 26 60
e 27 30
e 27 36
e 27 38
e 27 44
e 27 46
e 27 47
e 27 48
e 27 54
e 27 55
e 27 56
e 27 57
e 27 59
e 27 60
e 27 63
e 27 66
e 28 30
e 28 37
e 28 39
e 28 47
e 28 52
e 28 56
e 28 63
e 28 64
e 29 37
e 29 44
e 29 46
e 29 53
e 29 55
e 29 62
e 29 65
e 29 66
e 30 34
e 30 45
e 30 47
e 30 50
e 30 54
e 30 59
e 30 65
e 31 34
e 31 35
e 31 42
e 31 54
e 31 55
e 31 56
e 31 61
e 32 38
e 32 39
e 32 42
e 32 44
e 32 46
e 32 50
e 32 52
e 32 54
e 32 55
e 32 56
e 32 58
e 32 59
e 32 61
e 32 62
e 32 64
e 33 36
e 33 38
e 33 39
e 33 41
e 33 42
e 33 44
e 33 50
e 33 51
e 33 54
e 33 55
e 33 61
e 33 64
e 33 65
e 34 35
e 34 36
e 34 40
e 34 41
e 34 45
e 34 47
e 34 48
e 34 49
e 34 59
e 34 60
e 34 65
e 35 40
e 35 46
e 35 47
e 35 53
e 35 55
e 35 56
e 35 60
e 35 62
e 36 38
e 36 39
e 36 43
e 36 45
e 36 51
e 36 52
e 36 53
e 36 55
e 36 57
e 36 62
e 37 42
e 37 48
e 37 50
e 37 62
e 37 63
e 37 66
e 38 39
e 38 45
e 38 51
e 38 53
e 38 54
e 38 56
e 38 58
e 39 40
e 39 43
e 39 44
e 39 47
e 39 57
e 39 61
e 40 44
e 40 47
e 40 50
e 40 54
e 40 56
e 40 59
e 40 65
e 40 66
e 41 42
e 41 56
e 41 58
e 41 63
e 41 64
e 41 65
e 41 66
e 42 43
e 42 49
e 42 52
e 42 55
e 42 57
e 42 61
e 43 53
e 43 54
e 43 57
e 43 58
e 43 62
e 43 63
e 43 64
e 44 47
e 44 55
e 44 56
e 44 57
e 44 59
e 44 60
e 44 61
e 44 63
e 44 65
e 44 66
e 45 46
e 45 48
e 45 49
e 45 50
e 45 54
e 45 57
e 45 61
e 45 62
e 45 63
e 45 65
e 46 50
e 46 51
e 46 58
e 46 59
e 46 61
e 46 62
e 46 66
e 47 48
e 47 49
e 47 54
e 47 57
e 48 53
e 48 54
e 48 55
e 48 60
e 48 61
e 48 65
e 49 58
e 49 63
e 49 65
e 50 52
e 50 54
e 50 58
e 50 60
e 50 64
e 50 66
e 51 52
e 51 55
e 51 56
e 51 59
e 51 60
e 51 62
e 51 66
e 52 58
e 52 59
e 52 61
e 52 65
e 53 54
e 53 57
e 53 58
e 54 58
e 54 60
e 54 61
e 54 64
e 55 59
e 55 62
e 55 64
e 56 57
e 56 60
e 56 64
e 57 61
e 57 63
e 58 59
e 58 63
e 59 60
e 59 61
e 59 62
e 59 63
e 60 61
e 60 62
e 60 63
e 60 65
e 60 66
e 61 63
e 61 66
e 62 65
e 64 65
